20
1 0 4
2 0 58
2 1 49
3 0 6
3 1 30
3 2 51
4 0 6
4 1 41
4 2 47
4 3 6
5 0 6
5 1 51
5 2 28
5 3 33
5 4 29
6 0 51
6 1 3
6 2 2
6 3 21
6 4 50
6 5 27
7 0 58
7 1 4
7 2 30
7 3 8
7 4 40
7 5 37
7 6 23
8 0 39
8 1 39
8 2 18
8 3 50
8 4 48
8 5 29
8 6 5
8 7 42
9 0 50
9 1 53
9 2 16
9 3 56
9 4 32
9 5 56
9 6 8
9 7 10
9 8 41
10 0 54
10 1 46
10 2 34
10 3 46
10 4 56
10 5 10
10 6 32
10 7 28
10 8 29
10 9 24
11 0 22
11 1 36
11 2 23
11 3 27
11 4 34
11 5 27
11 6 53
11 7 53
11 8 42
11 9 35
11 10 1
12 0 38
12 1 47
12 2 43
12 3 10
12 4 23
12 5 44
12 6 3
12 7 52
12 8 29
12 9 24
12 10 31
12 11 42
13 0 14
13 1 5
13 2 20
13 3 22
13 4 9
13 5 32
13 6 7
13 7 9
13 8 27
13 9 57
13 10 37
13 11 3
13 12 43
14 0 35
14 1 18
14 2 43
14 3 48
14 4 38
14 5 50
14 6 43
14 7 12
14 8 47
14 9 5
14 10 48
14 11 34
14 12 31
14 13 58
15 0 18
15 1 56
15 2 4
15 3 25
15 4 46
15 5 57
15 6 36
15 7 28
15 8 16
15 9 22
15 10 59
15 11 54
15 12 24
15 13 7
15 14 20
16 0 7
16 1 36
16 2 10
16 3 1
16 4 23
16 5 20
16 6 48
16 7 4
16 8 2
16 9 21
16 10 55
16 11 53
16 12 55
16 13 6
16 14 45
16 15 50
17 0 59
17 1 52
17 2 55
17 3 15
17 4 21
17 5 15
17 6 37
17 7 40
17 8 57
17 9 21
17 10 41
17 11 29
17 12 11
17 13 6
17 14 37
17 15 20
17 16 6
18 0 24
18 1 37
18 2 50
18 3 20
18 4 29
18 5 43
18 6 34
18 7 43
18 8 43
18 9 10
18 10 27
18 11 3
18 12 7
18 13 41
18 14 40
18 15 47
18 16 44
18 17 22
19 0 4
19 1 35
19 2 8
19 3 26
19 4 42
19 5 32
19 6 31
19 7 48
19 8 31
19 9 14
19 10 2
19 11 25
19 12 59
19 13 26
19 14 34
19 15 52
19 16 40
19 17 6
19 18 53
